c Sudoku solution
p cnf 729 0
219 0
234 0
248 0
276 0
347 0
351 0
364 0
392 0
422 0
456 0
495 0
513 0
572 0
616 0
638 0
641 0
667 0
652 0
625 0
262 0
771 0
824 0
414 0
833 0
885 0
255 0
931 0
861 0
111 0
132 0
175 0
521 0
481 0
291 0
953 0
159 0
986 0
782 0
793 0
846 0
942 0
812 0
143 0
166 0
449 0
463 0
478 0
437 0
539 0
596 0
587 0
283 0
379 0
197 0
184 0
388 0
128 0
227 0
323 0
336 0
315 0
735 0
726 0
929 0
744 0
965 0
769 0
545 0
554 0
568 0
673 0
974 0
877 0
998 0
899 0
858 0
757 0
718 0
917 0
689 0
694 0
